,model,mean_ms,std_ms
0,dipole,22.860983855091035,1.5303704404995722
1,von_Mises,15.991039150394501,1.5802417996066493
2,boxcar,149.2440697159618,6.786669123109041
